c This Formular is generated by mcnf
c
c    horn? no 
c    forced? no 
c    mixed sat? no 
c    clause length = 3 
c
p cnf 20  91 
 1 3 -2 0
-13 3 4 0
17 19 -14 0
11 -17 -9 0
-2 -7 9 0
5 20 -13 0
1 14 20 0
-4 3 1 0
14 15 -2 0
-1 3 -9 0
2 1 11 0
-9 -15 7 0
-16 2 -10 0
7 20 -17 0
-10 5 -16 0
17 -3 -18 0
15 -19 -2 0
-6 16 -20 0
-6 2 12 0
5 8 -1 0
20 12 -16 0
%
0

97 40 71 100 64 68 85 82 17 38 45 75 1 1 41 78 93 27 2 21
